CapLotSizing_PM/src/Instancias/TCLSHT/12i6p2m/NBA03.OUT
 CG ITER, OVMR, OVMRUB =           1   17368.8027344   17368.8027344
 CG ITER, OVMR, OVMRUB =           2   17313.0058594   17313.0039062
 CG ITER, OVMR, OVMRUB =           3   17313.0058594   17313.0039062
 CG ITER, OVMR, OVMRUB =           4   17313.0019531   17313.0039062
 CG ITER, OVMR, OVMRUB =           5   16803.3906250   17313.0039062
 CG ITER, OVMR, OVMRUB =           6   16732.1972656   17313.0039062
 CG ITER, OVMR, OVMRUB =           7   16623.8281250   17313.0039062
 CG ITER, OVMR, OVMRUB =           8   16570.7441406   17313.0039062
 CG ITER, OVMR, OVMRUB =           9   16519.1660156   17313.0039062
 CG ITER, OVMR, OVMRUB =          10   16486.8457031   17313.0039062
 CG ITER, OVMR, OVMRUB =          11   16462.6835938   17313.0039062
 CG ITER, OVMR, OVMRUB =          12   16438.7910156   17313.0039062
 CG ITER, OVMR, OVMRUB =          13   16409.9609375   17313.0039062
 CG ITER, OVMR, OVMRUB =          14   16391.0566406   17237.0000000
 CG ITER, OVMR, OVMRUB =          15   16377.2929688   17237.0000000
 CG ITER, OVMR, OVMRUB =          16   16360.0429688   17237.0000000
 CG ITER, OVMR, OVMRUB =          17   16351.2675781   17237.0000000
 CG ITER, OVMR, OVMRUB =          18   16348.5996094   17237.0000000
 CG ITER, OVMR, OVMRUB =          19   16317.9404297   17237.0000000
 CG ITER, OVMR, OVMRUB =          20   16317.8017578   17237.0000000
 CG ITER, OVMR, OVMRUB =          21   16317.7031250   17237.0000000
 CG ITER, OVMR, OVMRUB =          22   16316.5224609   17237.0000000
 CG ITER, OVMR, OVMRUB =          23   16313.5166016   17237.0000000
 CG ITER, OVMR, OVMRUB =          24   16313.3154297   17125.1406250
 CG ITER, OVMR, OVMRUB =          25   16313.3330078   17125.1406250
 CG ITER, OVMR, OVMRUB =          26   16311.7617188   16749.1210938
 CG ITER, OVMR, OVMRUB =          27   16310.9902344   16749.1210938
 CG ITER, OVMR, OVMRUB =          28   16310.9667969   16749.1210938
 CG ITER, OVMR, OVMRUB =          29   16307.8994141   16749.1210938
 CG ITER, OVMR, OVMRUB =          30   16307.8203125   16664.6093750
 CG ITER, OVMR, OVMRUB =          31   16307.8134766   16664.6093750
 CG ITER, OVMR, OVMRUB =          32   16307.7939453   16664.6093750
 CG ITER, OVMR, OVMRUB =          33   16307.8173828   16620.3437500
 CG ITER, OVMR, OVMRUB =          34   16307.8203125   16620.3437500
 CG ITER, OVMR, OVMRUB =          35   16307.8203125   16424.6425781
OVLB =   16307.8203125 OVLUB =   16424.6425781 TIME =       3.9800000
